sat
(:card2bv-rewrites        6
 :elim-unconstrained      12
 :max-memory              253.32
 :memory                  88.22
 :num-allocs              39802628665.00
 :rlimit-count            148036349
 :sat-ate                 1642
 :sat-backjumps           229269
 :sat-backtracks          6580
 :sat-bce                 213
 :sat-conflicts           235849
 :sat-decisions           905905
 :sat-del-clause          681705
 :sat-elim-bool-vars-res  88483
 :sat-elim-clauses        13000
 :sat-elim-literals       65268
 :sat-gc-clause           180590
 :sat-minimized-lits      2740248
 :sat-mk-clause-2ary      271855
 :sat-mk-clause-3ary      181004
 :sat-mk-clause-nary      823296
 :sat-mk-var              149355
 :sat-probing-assigned    398
 :sat-propagations-2ary   45202385
 :sat-propagations-nary   81025929
 :sat-restarts            19077
 :sat-scc-elim-binary     1861
 :sat-scc-elim-vars       3511
 :sat-subs-resolution     13770
 :sat-subs-resolution-dyn 243324
 :sat-subsumed            127124
 :sat-tr                  1595
 :sat-units               4408
 :time                    59.35
 :total-time              59.36)
